\ENCODING=ISO-8859-1
\Problem name: IloCplex

Minimize
 obj: y
Subject To
 c1:  x1 + 24 r1 <= 24
 c2:  y1 - y <= -25
 c3:  x2 + 24 r2 <= 24
 c4:  - y + y2 <= -25
 c5:  x3 + 29 r3 <= 24
 c6:  - y + y3 <= -30
 c7:  x4 + 21 r4 <= 24
 c8:  - y + y4 <= -22
 c9:  x5 + 25 r5 <= 24
 c10: - y + y5 <= -26
 c11: x6 + 10 r6 <= 24
 c12: - y + y6 <= -11
 c13: x1 + 24 r1 - x2 - 25 p12 - 25 q12 <= -1
 c14: - 24 r1 + y1 - y2 - 25 p12 + 25 q12 <= 0
 c15: x1 - x2 - 24 r2 - 25 p12 + 25 q12 >= -24
 c16: y1 + 24 r2 - y2 - 25 p12 - 25 q12 >= -25
 c17: x1 + 24 r1 - x3 - 25 p13 - 25 q13 <= -1
 c18: - 24 r1 + y1 - y3 - 25 p13 + 25 q13 <= 0
 c19: x1 - x3 - 29 r3 - 25 p13 + 25 q13 >= -24
 c20: y1 + 29 r3 - y3 - 25 p13 - 25 q13 >= -20
 c21: x1 + 24 r1 - x4 - 25 p14 - 25 q14 <= -1
 c22: - 24 r1 + y1 - y4 - 25 p14 + 25 q14 <= 0
 c23: x1 - x4 - 21 r4 - 25 p14 + 25 q14 >= -24
 c24: y1 + 21 r4 - y4 - 25 p14 - 25 q14 >= -28
 c25: x1 + 24 r1 - x5 - 25 p15 - 25 q15 <= -1
 c26: - 24 r1 + y1 - y5 - 25 p15 + 25 q15 <= 0
 c27: x1 - x5 - 25 r5 - 25 p15 + 25 q15 >= -24
 c28: y1 + 25 r5 - y5 - 25 p15 - 25 q15 >= -24
 c29: x1 + 24 r1 - x6 - 25 p16 - 25 q16 <= -1
 c30: - 24 r1 + y1 - y6 - 25 p16 + 25 q16 <= 0
 c31: x1 - x6 - 10 r6 - 25 p16 + 25 q16 >= -24
 c32: y1 + 10 r6 - y6 - 25 p16 - 25 q16 >= -39
 c33: x2 + 24 r2 - x3 - 25 p23 - 25 q23 <= -1
 c34: - 24 r2 + y2 - y3 - 25 p23 + 25 q23 <= 0
 c35: x2 - x3 - 29 r3 - 25 p23 + 25 q23 >= -24
 c36: y2 + 29 r3 - y3 - 25 p23 - 25 q23 >= -20
 c37: x2 + 24 r2 - x4 - 25 p24 - 25 q24 <= -1
 c38: - 24 r2 + y2 - y4 - 25 p24 + 25 q24 <= 0
 c39: x2 - x4 - 21 r4 - 25 p24 + 25 q24 >= -24
 c40: y2 + 21 r4 - y4 - 25 p24 - 25 q24 >= -28
 c41: x2 + 24 r2 - x5 - 25 p25 - 25 q25 <= -1
 c42: - 24 r2 + y2 - y5 - 25 p25 + 25 q25 <= 0
 c43: x2 - x5 - 25 r5 - 25 p25 + 25 q25 >= -24
 c44: y2 + 25 r5 - y5 - 25 p25 - 25 q25 >= -24
 c45: x2 + 24 r2 - x6 - 25 p26 - 25 q26 <= -1
 c46: - 24 r2 + y2 - y6 - 25 p26 + 25 q26 <= 0
 c47: x2 - x6 - 10 r6 - 25 p26 + 25 q26 >= -24
 c48: y2 + 10 r6 - y6 - 25 p26 - 25 q26 >= -39
 c49: x3 + 29 r3 - x4 - 25 p34 - 25 q34 <= -1
 c50: - 29 r3 + y3 - y4 - 25 p34 + 25 q34 <= -5
 c51: x3 - x4 - 21 r4 - 25 p34 + 25 q34 >= -24
 c52: y3 + 21 r4 - y4 - 25 p34 - 25 q34 >= -28
 c53: x3 + 29 r3 - x5 - 25 p35 - 25 q35 <= -1
 c54: - 29 r3 + y3 - y5 - 25 p35 + 25 q35 <= -5
 c55: x3 - x5 - 25 r5 - 25 p35 + 25 q35 >= -24
 c56: y3 + 25 r5 - y5 - 25 p35 - 25 q35 >= -24
 c57: x3 + 29 r3 - x6 - 25 p36 - 25 q36 <= -1
 c58: - 29 r3 + y3 - y6 - 25 p36 + 25 q36 <= -5
 c59: x3 - x6 - 10 r6 - 25 p36 + 25 q36 >= -24
 c60: y3 + 10 r6 - y6 - 25 p36 - 25 q36 >= -39
 c61: x4 + 21 r4 - x5 - 25 p45 - 25 q45 <= -1
 c62: - 21 r4 + y4 - y5 - 25 p45 + 25 q45 <= 3
 c63: x4 - x5 - 25 r5 - 25 p45 + 25 q45 >= -24
 c64: y4 + 25 r5 - y5 - 25 p45 - 25 q45 >= -24
 c65: x4 + 21 r4 - x6 - 25 p46 - 25 q46 <= -1
 c66: - 21 r4 + y4 - y6 - 25 p46 + 25 q46 <= 3
 c67: x4 - x6 - 10 r6 - 25 p46 + 25 q46 >= -24
 c68: y4 + 10 r6 - y6 - 25 p46 - 25 q46 >= -39
 c69: x5 + 25 r5 - x6 - 25 p56 - 25 q56 <= -1
 c70: - 25 r5 + y5 - y6 - 25 p56 + 25 q56 <= -1
 c71: x5 - x6 - 10 r6 - 25 p56 + 25 q56 >= -24
 c72: y5 + 10 r6 - y6 - 25 p56 - 25 q56 >= -39
Bounds
      x1 >= 0
 0 <= r1 <= 1
      y1 >= 0
      x2 >= 0
 0 <= r2 <= 1
      y2 >= 0
      x3 >= 0
 0 <= r3 <= 1
      y3 >= 0
      x4 >= 0
 0 <= r4 <= 1
      y4 >= 0
      x5 >= 0
 0 <= r5 <= 1
      y5 >= 0
      x6 >= 0
 0 <= r6 <= 1
      y6 >= 0
 0 <= p12 <= 1
 0 <= q12 <= 1
 0 <= p13 <= 1
 0 <= q13 <= 1
 0 <= p14 <= 1
 0 <= q14 <= 1
 0 <= p15 <= 1
 0 <= q15 <= 1
 0 <= p16 <= 1
 0 <= q16 <= 1
 0 <= p23 <= 1
 0 <= q23 <= 1
 0 <= p24 <= 1
 0 <= q24 <= 1
 0 <= p25 <= 1
 0 <= q25 <= 1
 0 <= p26 <= 1
 0 <= q26 <= 1
 0 <= p34 <= 1
 0 <= q34 <= 1
 0 <= p35 <= 1
 0 <= q35 <= 1
 0 <= p36 <= 1
 0 <= q36 <= 1
 0 <= p45 <= 1
 0 <= q45 <= 1
 0 <= p46 <= 1
 0 <= q46 <= 1
 0 <= p56 <= 1
 0 <= q56 <= 1
Binaries
 r1  r2  r3  r4  r5  r6  p12  q12  p13  q13  p14  q14  p15  q15  p16  q16  p23 
 q23  p24  q24  p25  q25  p26  q26  p34  q34  p35  q35  p36  q36  p45  q45 
 p46  q46  p56  q56 
Generals
 x1  y1  x2  y2  x3  y3  x4  y4  x5  y5  x6  y6 
End
